5 
6 
2 
2 
7 
1 
2 
8 
1 
4 
11 
7 
2 
4 
10 
4 
6 
5 
7 
7 
8 
3 
12 
15 
1 
13 
3 
11 
8 
8 
10 
5 
6 
7 
10 
2 
11 
8 
6 
1 
8 
5 
9 
7 
2 
5 
7 
8 
9 
4 
5 
5 
3 
6 
8 
6 
8 
5 
4 
7 
2 
5 
3 
8 
6 
5 
6 
6 
4 
2 
9 
8 
6 
7 
7 
8 
1 
7 
4 
13 
1 
5 
10 
1 
1 
2 
10 
4 
6 
5 
3 
8 
8 
4 
7 
1 
6 
7 
1 
4 
